Route #1: 1 33 17 30 21 36 37 36 4 36 17 3 17 1 
Route #2: 1 6 38 5 18 38 16 11 40 11 34 11 31 10 17 1 
Route #3: 1 13 1 
Route #4: 1 12 17 35 17 22 17 39 1 
Route #5: 1 2 9 29 9 32 27 9 23 9 28 1 
Route #6: 1 19 26 14 26 15 25 24 8 24 7 1 
Cost 655.0
